45
100
69	1
68	2
67	1
65	2
64	5
63	2
62	3
61	1
60	4
59	2
58	3
57	2
56	1
55	1
54	1
53	1
52	1
51	4
49	2
48	2
47	2
46	4
45	4
44	2
43	6
42	2
41	1
40	1
39	2
38	3
37	1
36	2
35	2
34	2
33	1
32	4
31	2
30	1
29	2
28	2
25	3
23	6
22	1
21	1
20	2
